Gurobi Optimizer version 10.0.3 build v10.0.3rc0 (win64)

CPU model: 13th Gen Intel(R) Core(TM) i7-13700T, instruction set [SSE2|AVX|AVX2]
Thread count: 16 physical cores, 24 logical processors, using up to 24 threads

Optimize a model with 13528205 rows, 681029 columns and 27467325 nonzeros
Model fingerprint: 0xbf9ba92d
Variable types: 0 continuous, 681029 integer (147600 binary)
Coefficient statistics:
  Matrix range     [1e+00, 6e+02]
  Objective range  [6e+00, 3e+02]
  Bounds range     [1e+00, 1e+00]
  RHS range        [1e+00, 6e+02]
Presolve removed 190197 rows and 378932 columns (presolve time = 6s) ...
Presolve removed 322629 rows and 379024 columns (presolve time = 10s) ...
Presolve removed 322629 rows and 379024 columns (presolve time = 15s) ...
Presolve removed 322629 rows and 379024 columns (presolve time = 20s) ...
Presolve removed 322629 rows and 379024 columns (presolve time = 25s) ...
Presolve removed 322629 rows and 379024 columns (presolve time = 30s) ...
Presolve removed 322629 rows and 379024 columns (presolve time = 35s) ...
Presolve removed 322629 rows and 379024 columns (presolve time = 40s) ...
Presolve removed 322629 rows and 379024 columns (presolve time = 45s) ...
Presolve removed 322629 rows and 379024 columns (presolve time = 50s) ...
Presolve removed 322629 rows and 379024 columns (presolve time = 55s) ...
Presolve removed 322629 rows and 379024 columns (presolve time = 60s) ...
Presolve removed 322629 rows and 379024 columns (presolve time = 65s) ...
Presolve removed 322629 rows and 379024 columns (presolve time = 70s) ...
Presolve removed 322629 rows and 418601 columns (presolve time = 75s) ...
Presolve removed 1081029 rows and 418601 columns (presolve time = 81s) ...
Presolve removed 2064411 rows and 418602 columns (presolve time = 86s) ...
Presolve removed 2064894 rows and 419137 columns (presolve time = 90s) ...
Presolve removed 2064894 rows and 419137 columns (presolve time = 95s) ...
Presolve removed 2065003 rows and 419137 columns (presolve time = 100s) ...
Presolve removed 2065003 rows and 419137 columns (presolve time = 105s) ...
Presolve removed 2065003 rows and 419137 columns (presolve time = 110s) ...
Presolve removed 2065003 rows and 419137 columns (presolve time = 115s) ...
Presolve removed 2065003 rows and 419137 columns (presolve time = 120s) ...
Presolve removed 2065003 rows and 419137 columns (presolve time = 125s) ...
Presolve removed 2308218 rows and 443967 columns (presolve time = 130s) ...
Presolve removed 3770201 rows and 459161 columns (presolve time = 135s) ...
Presolve removed 3771924 rows and 459161 columns (presolve time = 140s) ...
Presolve removed 3771924 rows and 459161 columns (presolve time = 145s) ...
Presolve removed 3771924 rows and 459161 columns (presolve time = 150s) ...
Presolve removed 3771924 rows and 459161 columns (presolve time = 155s) ...
Presolve removed 3771924 rows and 459161 columns (presolve time = 160s) ...
Presolve removed 3771924 rows and 459161 columns (presolve time = 165s) ...
Presolve removed 4707554 rows and 459203 columns (presolve time = 170s) ...
Presolve removed 4707554 rows and 459203 columns (presolve time = 175s) ...
Presolve removed 4755302 rows and 497347 columns (presolve time = 180s) ...
Presolve removed 4755302 rows and 497347 columns (presolve time = 185s) ...
Presolve removed 4756303 rows and 497347 columns (presolve time = 190s) ...
Presolve removed 4756321 rows and 497347 columns (presolve time = 195s) ...
Presolve removed 4756321 rows and 497347 columns (presolve time = 200s) ...
Presolve removed 4756343 rows and 497347 columns (presolve time = 205s) ...
Presolve removed 4756981 rows and 497347 columns (presolve time = 210s) ...
Presolve removed 5042322 rows and 497347 columns (presolve time = 216s) ...
Presolve removed 5066273 rows and 497347 columns (presolve time = 221s) ...
Presolve removed 5083740 rows and 497347 columns (presolve time = 225s) ...
Presolve removed 5108924 rows and 497347 columns (presolve time = 231s) ...
Presolve removed 5132040 rows and 497347 columns (presolve time = 236s) ...
Presolve removed 5152256 rows and 497347 columns (presolve time = 240s) ...
Presolve removed 5176827 rows and 497347 columns (presolve time = 246s) ...
Presolve removed 5195613 rows and 497347 columns (presolve time = 250s) ...
Presolve removed 5217050 rows and 497347 columns (presolve time = 255s) ...
Presolve removed 5243252 rows and 497347 columns (presolve time = 261s) ...
Presolve removed 5264455 rows and 497347 columns (presolve time = 266s) ...
Presolve removed 5286436 rows and 497347 columns (presolve time = 271s) ...
Presolve removed 5309392 rows and 497347 columns (presolve time = 276s) ...
Presolve removed 5331763 rows and 497347 columns (presolve time = 281s) ...
Presolve removed 5350934 rows and 497347 columns (presolve time = 285s) ...
Presolve removed 5378187 rows and 497347 columns (presolve time = 291s) ...
Presolve removed 5401264 rows and 497347 columns (presolve time = 297s) ...
Presolve removed 5417475 rows and 497347 columns (presolve time = 301s) ...
Presolve removed 5439268 rows and 497347 columns (presolve time = 305s) ...
Presolve removed 5460001 rows and 497347 columns (presolve time = 310s) ...
Presolve removed 5483796 rows and 497347 columns (presolve time = 316s) ...
Presolve removed 5504575 rows and 497347 columns (presolve time = 320s) ...
Presolve removed 5529126 rows and 497347 columns (presolve time = 325s) ...
Presolve removed 5553343 rows and 497347 columns (presolve time = 331s) ...
Presolve removed 5586622 rows and 497347 columns (presolve time = 338s) ...
Presolve removed 5596088 rows and 499229 columns (presolve time = 340s) ...
Presolve removed 6466732 rows and 499229 columns (presolve time = 345s) ...
Presolve removed 6515666 rows and 537310 columns (presolve time = 350s) ...
Presolve removed 6515666 rows and 537310 columns (presolve time = 355s) ...
Presolve removed 6515666 rows and 537310 columns (presolve time = 360s) ...
Presolve removed 6517125 rows and 537310 columns (presolve time = 365s) ...
Presolve removed 6517146 rows and 537310 columns (presolve time = 370s) ...
Presolve removed 6518657 rows and 537310 columns (presolve time = 375s) ...
Presolve removed 6804237 rows and 537310 columns (presolve time = 381s) ...
Presolve removed 6828248 rows and 537310 columns (presolve time = 386s) ...
Presolve removed 6845712 rows and 537310 columns (presolve time = 390s) ...
Presolve removed 6870880 rows and 537310 columns (presolve time = 396s) ...
Presolve removed 6893879 rows and 537310 columns (presolve time = 401s) ...
Presolve removed 6913989 rows and 537310 columns (presolve time = 405s) ...
Presolve removed 6938445 rows and 537310 columns (presolve time = 411s) ...
Presolve removed 6957200 rows and 537310 columns (presolve time = 415s) ...
Presolve removed 6983503 rows and 537310 columns (presolve time = 421s) ...
Presolve removed 7004667 rows and 537310 columns (presolve time = 426s) ...
Presolve removed 7025779 rows and 537310 columns (presolve time = 430s) ...
Presolve removed 7047666 rows and 537310 columns (presolve time = 435s) ...
Presolve removed 7070552 rows and 537310 columns (presolve time = 441s) ...
Presolve removed 7092810 rows and 537310 columns (presolve time = 446s) ...
Presolve removed 7112029 rows and 537310 columns (presolve time = 450s) ...
Presolve removed 7139270 rows and 537310 columns (presolve time = 456s) ...
Presolve removed 7162397 rows and 537310 columns (presolve time = 462s) ...
Presolve removed 7178454 rows and 537310 columns (presolve time = 465s) ...
Presolve removed 7200364 rows and 537310 columns (presolve time = 470s) ...
Presolve removed 7228361 rows and 537310 columns (presolve time = 476s) ...
Presolve removed 7244857 rows and 537310 columns (presolve time = 480s) ...
Presolve removed 7265794 rows and 537310 columns (presolve time = 485s) ...
Presolve removed 7290498 rows and 537310 columns (presolve time = 490s) ...
Presolve removed 7314865 rows and 537310 columns (presolve time = 496s) ...
Presolve removed 7346115 rows and 537310 columns (presolve time = 503s) ...
Presolve removed 7354555 rows and 539189 columns (presolve time = 505s) ...
Presolve removed 8222882 rows and 539189 columns (presolve time = 510s) ...
Presolve removed 8272748 rows and 577121 columns (presolve time = 515s) ...
Presolve removed 8276187 rows and 577121 columns (presolve time = 520s) ...
Presolve removed 8276259 rows and 577121 columns (presolve time = 525s) ...
Presolve removed 8278251 rows and 577121 columns (presolve time = 530s) ...
Presolve removed 8719803 rows and 577121 columns (presolve time = 535s) ...
Presolve removed 8951337 rows and 577121 columns (presolve time = 540s) ...
Presolve removed 9978789 rows and 579056 columns (presolve time = 545s) ...
Presolve removed 10016640 rows and 616907 columns (presolve time = 550s) ...
Presolve removed 10030603 rows and 616907 columns (presolve time = 555s) ...
Presolve removed 10030603 rows and 616907 columns (presolve time = 560s) ...
Presolve removed 10036593 rows and 616907 columns (presolve time = 565s) ...
Presolve removed 10327173 rows and 616907 columns (presolve time = 570s) ...
Presolve removed 10369837 rows and 616907 columns (presolve time = 576s) ...
Presolve removed 10402303 rows and 616907 columns (presolve time = 580s) ...
Presolve removed 10435761 rows and 616907 columns (presolve time = 585s) ...
Presolve removed 10472776 rows and 616907 columns (presolve time = 590s) ...
Presolve removed 10509431 rows and 616907 columns (presolve time = 595s) ...
Presolve removed 10547447 rows and 616907 columns (presolve time = 600s) ...
Presolve removed 10586962 rows and 616907 columns (presolve time = 606s) ...
Presolve removed 10622138 rows and 616907 columns (presolve time = 610s) ...
Presolve removed 10657243 rows and 616907 columns (presolve time = 615s) ...
Presolve removed 10695337 rows and 616907 columns (presolve time = 620s) ...
Presolve removed 10731308 rows and 616907 columns (presolve time = 626s) ...
Presolve removed 10762556 rows and 616907 columns (presolve time = 630s) ...
Presolve removed 10800804 rows and 616907 columns (presolve time = 635s) ...
Presolve removed 10841646 rows and 616907 columns (presolve time = 641s) ...
Presolve removed 11734368 rows and 618819 columns (presolve time = 645s) ...
Presolve removed 11771940 rows and 656391 columns (presolve time = 650s) ...
Presolve removed 11786550 rows and 656391 columns (presolve time = 655s) ...
Presolve removed 12079315 rows and 656391 columns (presolve time = 661s) ...
Presolve removed 12104478 rows and 656391 columns (presolve time = 666s) ...
Presolve removed 12130427 rows and 656391 columns (presolve time = 671s) ...
Presolve removed 12154240 rows and 656391 columns (presolve time = 676s) ...
Presolve removed 12181470 rows and 656391 columns (presolve time = 681s) ...
Presolve removed 12200024 rows and 656391 columns (presolve time = 685s) ...
Presolve removed 12230873 rows and 656391 columns (presolve time = 691s) ...
Presolve removed 12251932 rows and 656391 columns (presolve time = 695s) ...
Presolve removed 12278397 rows and 656391 columns (presolve time = 701s) ...
Presolve removed 12300920 rows and 656391 columns (presolve time = 705s) ...
Presolve removed 12328790 rows and 656391 columns (presolve time = 711s) ...
Presolve removed 12351955 rows and 656391 columns (presolve time = 715s) ...
Presolve removed 12377274 rows and 656391 columns (presolve time = 720s) ...
Presolve removed 12405035 rows and 656391 columns (presolve time = 726s) ...
Presolve removed 12428243 rows and 656391 columns (presolve time = 731s) ...
Presolve removed 12450751 rows and 656391 columns (presolve time = 735s) ...
Presolve removed 12480096 rows and 656391 columns (presolve time = 741s) ...
Presolve removed 12503288 rows and 656391 columns (presolve time = 746s) ...
Presolve removed 12525338 rows and 656391 columns (presolve time = 751s) ...
Presolve removed 12549005 rows and 656391 columns (presolve time = 756s) ...
Presolve removed 12582230 rows and 656391 columns (presolve time = 762s) ...
Presolve removed 12596404 rows and 656391 columns (presolve time = 765s) ...
Presolve removed 13050756 rows and 658335 columns (presolve time = 770s) ...
Presolve removed 13236022 rows and 676672 columns (presolve time = 775s) ...
Presolve removed 13274301 rows and 676672 columns (presolve time = 780s) ...
Presolve removed 13310259 rows and 676672 columns (presolve time = 785s) ...
Presolve removed 13350511 rows and 676672 columns (presolve time = 790s) ...
Presolve removed 13390653 rows and 676672 columns (presolve time = 795s) ...
Presolve removed 13436316 rows and 676672 columns (presolve time = 801s) ...
Presolve removed 13468218 rows and 676672 columns (presolve time = 805s) ...
Presolve removed 13523164 rows and 678596 columns
Presolve time: 809.84s
Presolved: 5041 rows, 2433 columns, 12040 nonzeros
Variable types: 0 continuous, 2433 integer (720 binary)
Found heuristic solution: objective 34831.690000

Root simplex log...

Iteration    Objective       Primal Inf.    Dual Inf.      Time
       0    1.7710284e+05   1.139829e+03   0.000000e+00    812s
    2488    9.7372563e+04   0.000000e+00   0.000000e+00    812s

Root relaxation: objective 9.737256e+04, 2488 iterations, 0.01 seconds (0.02 work units)

    Nodes    |    Current Node    |     Objective Bounds      |     Work
 Expl Unexpl |  Obj  Depth IntInf | Incumbent    BestBd   Gap | It/Node Time

     0     0 97372.5633    0  721 34831.6900 97372.5633   180%     -  811s
H    0     0                    87999.960000 97372.5633  10.7%     -  811s
H    0     0                    88396.960000 97372.5633  10.2%     -  811s
H    0     0                    88695.960000 97372.5633  9.78%     -  811s
H    0     0                    89461.960000 97372.5633  8.84%     -  811s
H    0     0                    93041.620000 97372.5633  4.65%     -  812s
H    0     0                    93681.620000 97372.5633  3.94%     -  812s
H    0     0                    93689.620000 97372.5633  3.93%     -  812s
     0     0 95510.8283    0   96 93689.6200 95510.8283  1.94%     -  812s
H    0     0                    94916.220000 95510.8283  0.63%     -  812s
H    0     0                    95117.120000 95510.8283  0.41%     -  812s
H    0     0                    95124.120000 95371.5200  0.26%     -  812s
H    0     0                    95234.120000 95371.5200  0.14%     -  812s
H    0     0                    95368.870000 95371.5200  0.00%     -  812s
     0     0 95370.6700    0    9 95368.8700 95370.6700  0.00%     -  812s

Cutting planes:
  Gomory: 21
  Cover: 315
  Implied bound: 138
  Clique: 108
  MIR: 26
  Flow cover: 29
  Zero half: 35
  Network: 2
  RLT: 12
  PSD: 15

Explored 1 nodes (3490 simplex iterations) in 812.56 seconds (266.14 work units)
Thread count was 24 (of 24 available processors)

Solution count 10: 95368.9 95234.1 95124.1 ... 88696

Optimal solution found (tolerance 1.00e-04)
Best objective 9.536887000000e+04, best bound 9.537067000000e+04, gap 0.0019%
Valor da função objetivo:  95368.87000000001

Tempo para criar o modelo:  103.61633849143982
